
(set-logic ALL) 

(declare-datatype MyList ((Nil) (Cons (head Real) (tail MyList)) )) 
(declare-fun l0 () MyList) 
(declare-fun l1 () MyList) 
(declare-fun l2 () MyList) 
(declare-fun l3 () MyList) 
(declare-fun i0 () Real) 
(declare-fun i1 () Real) 
(assert (is-Cons Nil) )
(assert (or (= l0 Nil) (is-Cons l2)) )
(assert (is-Nil l0) )
(assert (and (is-Cons Nil) (= l1 Nil) (= l3 Nil) (= l0 Nil)) )
(assert (and (= l3 Nil) (is-Cons Nil)) )
(assert (is-Nil l3) )
(assert (= l3 Nil) )
(assert (or (= l0 Nil) (= l2 Nil)) )
(check-sat)
